70
1 0 26
2 0 36
2 1 17
3 0 57
3 1 53
3 2 54
4 0 54
4 1 56
4 2 70
4 3 25
5 0 14
5 1 17
5 2 62
5 3 54
5 4 26
6 0 39
6 1 9
6 2 56
6 3 63
6 4 26
6 5 56
7 0 20
7 1 74
7 2 53
7 3 55
7 4 55
7 5 38
7 6 41
8 0 49
8 1 70
8 2 73
8 3 22
8 4 52
8 5 5
8 6 35
8 7 74
9 0 3
9 1 62
9 2 4
9 3 10
9 4 9
9 5 3
9 6 52
9 7 45
9 8 38
10 0 70
10 1 67
10 2 35
10 3 4
10 4 29
10 5 17
10 6 15
10 7 19
10 8 40
10 9 26
11 0 67
11 1 68
11 2 40
11 3 34
11 4 23
11 5 58
11 6 39
11 7 71
11 8 3
11 9 36
11 10 69
12 0 75
12 1 70
12 2 17
12 3 58
12 4 19
12 5 50
12 6 57
12 7 52
12 8 50
12 9 6
12 10 65
12 11 32
13 0 38
13 1 48
13 2 15
13 3 37
13 4 62
13 5 19
13 6 20
13 7 12
13 8 73
13 9 12
13 10 68
13 11 47
13 12 70
14 0 48
14 1 43
14 2 31
14 3 49
14 4 68
14 5 16
14 6 17
14 7 40
14 8 22
14 9 40
14 10 52
14 11 58
14 12 41
14 13 12
15 0 68
15 1 24
15 2 3
15 3 45
15 4 47
15 5 38
15 6 2
15 7 32
15 8 30
15 9 53
15 10 28
15 11 57
15 12 20
15 13 39
15 14 21
16 0 10
16 1 44
16 2 32
16 3 75
16 4 32
16 5 8
16 6 61
16 7 51
16 8 5
16 9 45
16 10 57
16 11 36
16 12 10
16 13 25
16 14 23
16 15 75
17 0 61
17 1 29
17 2 49
17 3 33
17 4 22
17 5 53
17 6 57
17 7 5
17 8 22
17 9 10
17 10 33
17 11 69
17 12 43
17 13 65
17 14 35
17 15 63
17 16 17
18 0 23
18 1 52
18 2 20
18 3 44
18 4 8
18 5 12
18 6 24
18 7 2
18 8 46
18 9 31
18 10 16
18 11 6
18 12 43
18 13 61
18 14 63
18 15 39
18 16 27
18 17 31
19 0 32
19 1 28
19 2 10
19 3 51
19 4 10
19 5 11
19 6 69
19 7 14
19 8 22
19 9 35
19 10 27
19 11 6
19 12 58
19 13 9
19 14 42
19 15 60
19 16 15
19 17 17
19 18 31
20 0 39
20 1 40
20 2 62
20 3 23
20 4 22
20 5 72
20 6 23
20 7 75
20 8 46
20 9 1
20 10 25
20 11 17
20 12 18
20 13 59
20 14 19
20 15 10
20 16 17
20 17 9
20 18 12
20 19 58
21 0 50
21 1 35
21 2 8
21 3 8
21 4 33
21 5 67
21 6 3
21 7 36
21 8 10
21 9 2
21 10 33
21 11 12
21 12 61
21 13 21
21 14 3
21 15 55
21 16 23
21 17 41
21 18 56
21 19 28
21 20 28
22 0 7
22 1 51
22 2 75
22 3 44
22 4 40
22 5 17
22 6 24
22 7 2
22 8 70
22 9 23
22 10 70
22 11 16
22 12 37
22 13 11
22 14 71
22 15 42
22 16 32
22 17 41
22 18 6
22 19 37
22 20 70
22 21 23
23 0 4
23 1 5
23 2 23
23 3 6
23 4 38
23 5 37
23 6 49
23 7 19
23 8 15
23 9 11
23 10 62
23 11 22
23 12 65
23 13 60
23 14 33
23 15 49
23 16 12
23 17 23
23 18 5
23 19 32
23 20 36
23 21 61
23 22 4
24 0 15
24 1 50
24 2 22
24 3 41
24 4 46
24 5 66
24 6 5
24 7 47
24 8 67
24 9 70
24 10 37
24 11 52
24 12 18
24 13 24
24 14 4
24 15 26
24 16 55
24 17 19
24 18 28
24 19 51
24 20 25
24 21 57
24 22 13
24 23 39
25 0 63
25 1 37
25 2 75
25 3 5
25 4 22
25 5 64
25 6 12
25 7 74
25 8 71
25 9 50
25 10 34
25 11 66
25 12 43
25 13 25
25 14 35
25 15 64
25 16 23
25 17 24
25 18 37
25 19 28
25 20 54
25 21 33
25 22 28
25 23 47
25 24 10
26 0 9
26 1 74
26 2 26
26 3 26
26 4 61
26 5 70
26 6 48
26 7 14
26 8 10
26 9 54
26 10 10
26 11 43
26 12 24
26 13 46
26 14 61
26 15 6
26 16 26
26 17 62
26 18 5
26 19 17
26 20 30
26 21 61
26 22 70
26 23 54
26 24 70
26 25 50
27 0 50
27 1 52
27 2 23
27 3 7
27 4 70
27 5 32
27 6 53
27 7 29
27 8 22
27 9 29
27 10 72
27 11 23
27 12 70
27 13 11
27 14 25
27 15 62
27 16 45
27 17 66
27 18 46
27 19 22
27 20 23
27 21 31
27 22 55
27 23 13
27 24 22
27 25 61
27 26 7
28 0 50
28 1 20
28 2 31
28 3 15
28 4 67
28 5 61
28 6 19
28 7 2
28 8 6
28 9 52
28 10 56
28 11 58
28 12 35
28 13 23
28 14 68
28 15 31
28 16 37
28 17 36
28 18 23
28 19 27
28 20 35
28 21 37
28 22 64
28 23 25
28 24 8
28 25 70
28 26 65
28 27 73
29 0 23
29 1 61
29 2 7
29 3 75
29 4 14
29 5 68
29 6 57
29 7 61
29 8 24
29 9 38
29 10 41
29 11 67
29 12 38
29 13 65
29 14 24
29 15 36
29 16 51
29 17 74
29 18 71
29 19 18
29 20 60
29 21 52
29 22 29
29 23 73
29 24 43
29 25 4
29 26 11
29 27 45
29 28 56
30 0 38
30 1 38
30 2 66
30 3 5
30 4 35
30 5 26
30 6 60
30 7 2
30 8 6
30 9 24
30 10 22
30 11 31
30 12 32
30 13 56
30 14 71
30 15 64
30 16 34
30 17 42
30 18 69
30 19 4
30 20 22
30 21 4
30 22 66
30 23 42
30 24 72
30 25 20
30 26 3
30 27 67
30 28 19
30 29 32
31 0 38
31 1 56
31 2 44
31 3 45
31 4 34
31 5 31
31 6 17
31 7 30
31 8 58
31 9 37
31 10 52
31 11 62
31 12 32
31 13 1
31 14 56
31 15 6
31 16 37
31 17 73
31 18 75
31 19 6
31 20 48
31 21 16
31 22 8
31 23 26
31 24 48
31 25 18
31 26 8
31 27 4
31 28 71
31 29 5
31 30 27
32 0 38
32 1 52
32 2 39
32 3 10
32 4 44
32 5 30
32 6 30
32 7 54
32 8 52
32 9 32
32 10 36
32 11 66
32 12 19
32 13 68
32 14 22
32 15 51
32 16 65
32 17 46
32 18 5
32 19 16
32 20 52
32 21 11
32 22 31
32 23 52
32 24 44
32 25 20
32 26 34
32 27 73
32 28 6
32 29 20
32 30 46
32 31 35
33 0 20
33 1 63
33 2 26
33 3 71
33 4 15
33 5 53
33 6 19
33 7 58
33 8 21
33 9 68
33 10 40
33 11 40
33 12 60
33 13 58
33 14 64
33 15 4
33 16 45
33 17 55
33 18 60
33 19 31
33 20 38
33 21 38
33 22 45
33 23 23
33 24 11
33 25 36
33 26 73
33 27 66
33 28 70
33 29 15
33 30 74
33 31 72
33 32 56
34 0 18
34 1 36
34 2 19
34 3 30
34 4 8
34 5 28
34 6 72
34 7 66
34 8 44
34 9 69
34 10 63
34 11 73
34 12 75
34 13 57
34 14 57
34 15 66
34 16 10
34 17 17
34 18 7
34 19 68
34 20 61
34 21 30
34 22 52
34 23 4
34 24 37
34 25 58
34 26 19
34 27 38
34 28 8
34 29 43
34 30 11
34 31 12
34 32 23
34 33 6
35 0 15
35 1 38
35 2 51
35 3 28
35 4 4
35 5 64
35 6 49
35 7 45
35 8 61
35 9 42
35 10 75
35 11 40
35 12 26
35 13 40
35 14 36
35 15 69
35 16 34
35 17 43
35 18 55
35 19 12
35 20 45
35 21 5
35 22 38
35 23 4
35 24 6
35 25 4
35 26 6
35 27 59
35 28 52
35 29 70
35 30 6
35 31 26
35 32 32
35 33 8
35 34 26
36 0 10
36 1 50
36 2 25
36 3 38
36 4 22
36 5 60
36 6 54
36 7 14
36 8 13
36 9 39
36 10 46
36 11 27
36 12 69
36 13 70
36 14 44
36 15 4
36 16 1
36 17 25
36 18 50
36 19 24
36 20 23
36 21 35
36 22 10
36 23 35
36 24 1
36 25 18
36 26 56
36 27 62
36 28 37
36 29 42
36 30 17
36 31 30
36 32 57
36 33 52
36 34 13
36 35 31
37 0 36
37 1 4
37 2 75
37 3 34
37 4 19
37 5 53
37 6 30
37 7 62
37 8 65
37 9 54
37 10 29
37 11 17
37 12 65
37 13 22
37 14 6
37 15 58
37 16 23
37 17 12
37 18 56
37 19 29
37 20 55
37 21 64
37 22 40
37 23 38
37 24 56
37 25 56
37 26 19
37 27 3
37 28 55
37 29 67
37 30 75
37 31 73
37 32 36
37 33 17
37 34 25
37 35 58
37 36 66
38 0 40
38 1 36
38 2 67
38 3 67
38 4 26
38 5 62
38 6 63
38 7 35
38 8 35
38 9 28
38 10 27
38 11 11
38 12 9
38 13 22
38 14 18
38 15 36
38 16 48
38 17 39
38 18 25
38 19 36
38 20 17
38 21 1
38 22 69
38 23 61
38 24 30
38 25 20
38 26 50
38 27 33
38 28 69
38 29 6
38 30 48
38 31 59
38 32 32
38 33 58
38 34 8
38 35 59
38 36 8
38 37 15
39 0 15
39 1 30
39 2 1
39 3 28
39 4 53
39 5 22
39 6 74
39 7 47
39 8 23
39 9 68
39 10 15
39 11 23
39 12 23
39 13 10
39 14 60
39 15 60
39 16 47
39 17 13
39 18 20
39 19 19
39 20 31
39 21 30
39 22 16
39 23 8
39 24 52
39 25 24
39 26 6
39 27 39
39 28 3
39 29 73
39 30 53
39 31 22
39 32 65
39 33 11
39 34 57
39 35 62
39 36 8
39 37 44
39 38 48
40 0 6
40 1 14
40 2 61
40 3 15
40 4 60
40 5 55
40 6 25
40 7 32
40 8 29
40 9 22
40 10 28
40 11 72
40 12 10
40 13 2
40 14 20
40 15 15
40 16 56
40 17 14
40 18 37
40 19 1
40 20 26
40 21 64
40 22 37
40 23 54
40 24 31
40 25 12
40 26 8
40 27 55
40 28 25
40 29 5
40 30 22
40 31 57
40 32 40
40 33 33
40 34 14
40 35 68
40 36 26
40 37 56
40 38 64
40 39 51
41 0 6
41 1 6
41 2 29
41 3 73
41 4 72
41 5 63
41 6 70
41 7 37
41 8 67
41 9 43
41 10 75
41 11 7
41 12 23
41 13 62
41 14 9
41 15 11
41 16 28
41 17 52
41 18 47
41 19 52
41 20 31
41 21 65
41 22 12
41 23 24
41 24 29
41 25 75
41 26 14
41 27 53
41 28 54
41 29 66
41 30 53
41 31 28
41 32 57
41 33 51
41 34 51
41 35 18
41 36 54
41 37 12
41 38 16
41 39 60
41 40 74
42 0 72
42 1 19
42 2 9
42 3 67
42 4 64
42 5 27
42 6 71
42 7 45
42 8 68
42 9 2
42 10 53
42 11 41
42 12 75
42 13 28
42 14 9
42 15 48
42 16 61
42 17 19
42 18 47
42 19 10
42 20 42
42 21 9
42 22 74
42 23 65
42 24 68
42 25 16
42 26 58
42 27 30
42 28 65
42 29 73
42 30 32
42 31 5
42 32 52
42 33 33
42 34 19
42 35 4
42 36 1
42 37 33
42 38 42
42 39 5
42 40 45
42 41 48
43 0 45
43 1 15
43 2 60
43 3 50
43 4 26
43 5 66
43 6 22
43 7 5
43 8 67
43 9 21
43 10 49
43 11 45
43 12 23
43 13 35
43 14 16
43 15 35
43 16 11
43 17 71
43 18 66
43 19 4
43 20 60
43 21 60
43 22 69
43 23 38
43 24 48
43 25 20
43 26 7
43 27 30
43 28 32
43 29 34
43 30 37
43 31 65
43 32 42
43 33 62
43 34 72
43 35 24
43 36 4
43 37 26
43 38 66
43 39 46
43 40 33
43 41 31
43 42 73
44 0 74
44 1 63
44 2 22
44 3 14
44 4 35
44 5 1
44 6 28
44 7 54
44 8 29
44 9 1
44 10 39
44 11 1
44 12 19
44 13 67
44 14 39
44 15 8
44 16 7
44 17 44
44 18 3
44 19 54
44 20 10
44 21 46
44 22 73
44 23 73
44 24 12
44 25 57
44 26 73
44 27 43
44 28 16
44 29 33
44 30 23
44 31 64
44 32 31
44 33 35
44 34 55
44 35 9
44 36 63
44 37 51
44 38 52
44 39 5
44 40 1
44 41 28
44 42 18
44 43 17
45 0 20
45 1 49
45 2 30
45 3 61
45 4 19
45 5 6
45 6 62
45 7 25
45 8 75
45 9 15
45 10 16
45 11 58
45 12 48
45 13 70
45 14 27
45 15 35
45 16 41
45 17 66
45 18 25
45 19 50
45 20 31
45 21 65
45 22 68
45 23 39
45 24 63
45 25 45
45 26 6
45 27 17
45 28 5
45 29 67
45 30 51
45 31 10
45 32 6
45 33 6
45 34 5
45 35 23
45 36 33
45 37 47
45 38 43
45 39 68
45 40 14
45 41 51
45 42 19
45 43 17
45 44 66
46 0 40
46 1 66
46 2 21
46 3 52
46 4 75
46 5 35
46 6 23
46 7 68
46 8 9
46 9 51
46 10 49
46 11 28
46 12 68
46 13 59
46 14 55
46 15 64
46 16 64
46 17 25
46 18 16
46 19 7
46 20 32
46 21 24
46 22 36
46 23 12
46 24 4
46 25 56
46 26 4
46 27 40
46 28 65
46 29 69
46 30 48
46 31 48
46 32 40
46 33 49
46 34 65
46 35 12
46 36 69
46 37 26
46 38 61
46 39 16
46 40 15
46 41 50
46 42 3
46 43 75
46 44 75
46 45 18
47 0 61
47 1 65
47 2 24
47 3 36
47 4 26
47 5 49
47 6 41
47 7 47
47 8 44
47 9 66
47 10 65
47 11 48
47 12 66
47 13 8
47 14 43
47 15 18
47 16 24
47 17 28
47 18 36
47 19 44
47 20 58
47 21 68
47 22 9
47 23 19
47 24 60
47 25 13
47 26 39
47 27 24
47 28 5
47 29 3
47 30 74
47 31 3
47 32 74
47 33 60
47 34 51
47 35 14
47 36 27
47 37 6
47 38 32
47 39 12
47 40 58
47 41 1
47 42 57
47 43 26
47 44 46
47 45 14
47 46 10
48 0 31
48 1 7
48 2 23
48 3 75
48 4 34
48 5 57
48 6 28
48 7 73
48 8 17
48 9 5
48 10 5
48 11 35
48 12 69
48 13 33
48 14 39
48 15 20
48 16 75
48 17 38
48 18 48
48 19 15
48 20 29
48 21 44
48 22 54
48 23 55
48 24 58
48 25 45
48 26 74
48 27 16
48 28 62
48 29 7
48 30 26
48 31 68
48 32 65
48 33 63
48 34 30
48 35 24
48 36 64
48 37 23
48 38 40
48 39 24
48 40 1
48 41 6
48 42 54
48 43 70
48 44 45
48 45 54
48 46 21
48 47 7
49 0 15
49 1 1
49 2 45
49 3 35
49 4 67
49 5 24
49 6 69
49 7 25
49 8 8
49 9 45
49 10 20
49 11 68
49 12 70
49 13 20
49 14 32
49 15 66
49 16 25
49 17 1
49 18 31
49 19 64
49 20 22
49 21 17
49 22 68
49 23 70
49 24 10
49 25 41
49 26 39
49 27 62
49 28 31
49 29 69
49 30 69
49 31 3
49 32 74
49 33 70
49 34 18
49 35 4
49 36 30
49 37 34
49 38 8
49 39 59
49 40 44
49 41 57
49 42 31
49 43 26
49 44 31
49 45 60
49 46 43
49 47 7
49 48 59
50 0 16
50 1 72
50 2 49
50 3 15
50 4 6
50 5 43
50 6 7
50 7 69
50 8 68
50 9 31
50 10 48
50 11 24
50 12 72
50 13 69
50 14 41
50 15 1
50 16 10
50 17 35
50 18 70
50 19 43
50 20 68
50 21 61
50 22 74
50 23 34
50 24 8
50 25 4
50 26 30
50 27 73
50 28 41
50 29 26
50 30 22
50 31 42
50 32 48
50 33 35
50 34 1
50 35 72
50 36 60
50 37 19
50 38 8
50 39 39
50 40 65
50 41 73
50 42 71
50 43 22
50 44 19
50 45 47
50 46 36
50 47 20
50 48 25
50 49 40
51 0 6
51 1 3
51 2 18
51 3 53
51 4 41
51 5 60
51 6 14
51 7 73
51 8 55
51 9 21
51 10 6
51 11 46
51 12 28
51 13 25
51 14 54
51 15 23
51 16 72
51 17 70
51 18 13
51 19 23
51 20 63
51 21 73
51 22 73
51 23 34
51 24 70
51 25 17
51 26 15
51 27 19
51 28 50
51 29 10
51 30 56
51 31 8
51 32 71
51 33 31
51 34 8
51 35 43
51 36 33
51 37 44
51 38 49
51 39 7
51 40 33
51 41 4
51 42 19
51 43 55
51 44 70
51 45 14
51 46 43
51 47 54
51 48 59
51 49 38
51 50 30
52 0 57
52 1 19
52 2 14
52 3 8
52 4 55
52 5 73
52 6 7
52 7 56
52 8 1
52 9 28
52 10 29
52 11 41
52 12 25
52 13 4
52 14 26
52 15 65
52 16 32
52 17 39
52 18 52
52 19 56
52 20 42
52 21 41
52 22 75
52 23 56
52 24 36
52 25 61
52 26 44
52 27 40
52 28 69
52 29 46
52 30 10
52 31 45
52 32 26
52 33 69
52 34 2
52 35 75
52 36 34
52 37 9
52 38 69
52 39 66
52 40 75
52 41 67
52 42 18
52 43 29
52 44 57
52 45 36
52 46 42
52 47 4
52 48 38
52 49 73
52 50 72
52 51 64
53 0 54
53 1 38
53 2 70
53 3 39
53 4 7
53 5 47
53 6 37
53 7 56
53 8 10
53 9 64
53 10 23
53 11 27
53 12 41
53 13 43
53 14 21
53 15 61
53 16 71
53 17 45
53 18 59
53 19 17
53 20 29
53 21 4
53 22 27
53 23 75
53 24 36
53 25 31
53 26 66
53 27 71
53 28 21
53 29 71
53 30 12
53 31 2
53 32 14
53 33 57
53 34 57
53 35 33
53 36 26
53 37 22
53 38 23
53 39 47
53 40 42
53 41 63
53 42 49
53 43 21
53 44 45
53 45 48
53 46 57
53 47 49
53 48 27
53 49 35
53 50 69
53 51 37
53 52 23
54 0 55
54 1 70
54 2 49
54 3 7
54 4 50
54 5 18
54 6 5
54 7 39
54 8 1
54 9 9
54 10 39
54 11 67
54 12 22
54 13 39
54 14 56
54 15 42
54 16 41
54 17 74
54 18 34
54 19 35
54 20 21
54 21 71
54 22 35
54 23 42
54 24 56
54 25 21
54 26 4
54 27 47
54 28 1
54 29 52
54 30 6
54 31 73
54 32 31
54 33 48
54 34 56
54 35 59
54 36 17
54 37 55
54 38 56
54 39 23
54 40 56
54 41 50
54 42 25
54 43 2
54 44 7
54 45 31
54 46 45
54 47 46
54 48 38
54 49 75
54 50 64
54 51 14
54 52 60
54 53 10
55 0 6
55 1 22
55 2 19
55 3 54
55 4 43
55 5 39
55 6 25
55 7 49
55 8 42
55 9 54
55 10 55
55 11 58
55 12 20
55 13 25
55 14 58
55 15 49
55 16 47
55 17 5
55 18 16
55 19 54
55 20 53
55 21 14
55 22 58
55 23 64
55 24 46
55 25 74
55 26 14
55 27 29
55 28 27
55 29 14
55 30 38
55 31 25
55 32 65
55 33 40
55 34 63
55 35 75
55 36 23
55 37 51
55 38 67
55 39 43
55 40 17
55 41 72
55 42 71
55 43 13
55 44 32
55 45 7
55 46 16
55 47 39
55 48 15
55 49 45
55 50 41
55 51 21
55 52 52
55 53 25
55 54 1
56 0 35
56 1 31
56 2 60
56 3 1
56 4 63
56 5 69
56 6 3
56 7 38
56 8 71
56 9 55
56 10 70
56 11 73
56 12 17
56 13 29
56 14 47
56 15 1
56 16 33
56 17 48
56 18 20
56 19 40
56 20 23
56 21 4
56 22 11
56 23 15
56 24 6
56 25 27
56 26 10
56 27 31
56 28 35
56 29 51
56 30 61
56 31 14
56 32 10
56 33 8
56 34 65
56 35 27
56 36 48
56 37 35
56 38 38
56 39 29
56 40 47
56 41 13
56 42 2
56 43 32
56 44 45
56 45 43
56 46 63
56 47 33
56 48 42
56 49 10
56 50 31
56 51 52
56 52 24
56 53 21
56 54 15
56 55 52
57 0 29
57 1 68
57 2 24
57 3 49
57 4 46
57 5 68
57 6 35
57 7 58
57 8 5
57 9 67
57 10 50
57 11 9
57 12 57
57 13 29
57 14 42
57 15 63
57 16 23
57 17 68
57 18 26
57 19 69
57 20 38
57 21 54
57 22 55
57 23 64
57 24 38
57 25 27
57 26 28
57 27 64
57 28 2
57 29 70
57 30 54
57 31 35
57 32 59
57 33 7
57 34 22
57 35 50
57 36 14
57 37 73
57 38 43
57 39 1
57 40 55
57 41 38
57 42 32
57 43 15
57 44 65
57 45 8
57 46 30
57 47 9
57 48 20
57 49 27
57 50 30
57 51 38
57 52 42
57 53 25
57 54 55
57 55 29
57 56 16
58 0 60
58 1 28
58 2 20
58 3 72
58 4 12
58 5 68
58 6 48
58 7 74
58 8 10
58 9 50
58 10 6
58 11 69
58 12 32
58 13 71
58 14 26
58 15 75
58 16 63
58 17 9
58 18 2
58 19 28
58 20 48
58 21 36
58 22 45
58 23 10
58 24 15
58 25 51
58 26 15
58 27 44
58 28 10
58 29 22
58 30 14
58 31 72
58 32 26
58 33 68
58 34 35
58 35 29
58 36 69
58 37 56
58 38 17
58 39 5
58 40 59
58 41 48
58 42 14
58 43 58
58 44 22
58 45 68
58 46 1
58 47 9
58 48 28
58 49 40
58 50 11
58 51 33
58 52 1
58 53 42
58 54 24
58 55 71
58 56 66
58 57 59
59 0 37
59 1 53
59 2 40
59 3 66
59 4 70
59 5 34
59 6 57
59 7 59
59 8 65
59 9 29
59 10 39
59 11 2
59 12 49
59 13 39
59 14 61
59 15 70
59 16 40
59 17 1
59 18 39
59 19 28
59 20 38
59 21 56
59 22 62
59 23 19
59 24 53
59 25 1
59 26 71
59 27 55
59 28 35
59 29 13
59 30 9
59 31 27
59 32 64
59 33 25
59 34 15
59 35 7
59 36 27
59 37 61
59 38 22
59 39 13
59 40 18
59 41 61
59 42 12
59 43 28
59 44 22
59 45 20
59 46 43
59 47 66
59 48 31
59 49 15
59 50 45
59 51 65
59 52 13
59 53 72
59 54 42
59 55 55
59 56 75
59 57 68
59 58 18
60 0 34
60 1 72
60 2 52
60 3 40
60 4 13
60 5 21
60 6 15
60 7 45
60 8 46
60 9 61
60 10 48
60 11 8
60 12 42
60 13 20
60 14 29
60 15 32
60 16 25
60 17 73
60 18 52
60 19 40
60 20 32
60 21 32
60 22 21
60 23 7
60 24 38
60 25 56
60 26 28
60 27 16
60 28 25
60 29 74
60 30 56
60 31 31
60 32 40
60 33 73
60 34 68
60 35 5
60 36 10
60 37 64
60 38 33
60 39 35
60 40 23
60 41 56
60 42 75
60 43 69
60 44 66
60 45 5
60 46 51
60 47 65
60 48 21
60 49 43
60 50 53
60 51 57
60 52 15
60 53 74
60 54 42
60 55 8
60 56 8
60 57 59
60 58 4
60 59 15
61 0 22
61 1 63
61 2 4
61 3 14
61 4 19
61 5 32
61 6 55
61 7 44
61 8 24
61 9 16
61 10 41
61 11 31
61 12 14
61 13 20
61 14 38
61 15 34
61 16 37
61 17 58
61 18 14
61 19 39
61 20 45
61 21 36
61 22 55
61 23 40
61 24 39
61 25 64
61 26 55
61 27 64
61 28 13
61 29 26
61 30 48
61 31 15
61 32 63
61 33 36
61 34 23
61 35 2
61 36 23
61 37 42
61 38 47
61 39 29
61 40 3
61 41 11
61 42 35
61 43 32
61 44 36
61 45 52
61 46 24
61 47 75
61 48 15
61 49 73
61 50 25
61 51 29
61 52 46
61 53 12
61 54 59
61 55 61
61 56 31
61 57 53
61 58 74
61 59 16
61 60 70
62 0 28
62 1 26
62 2 55
62 3 10
62 4 7
62 5 66
62 6 48
62 7 67
62 8 34
62 9 47
62 10 54
62 11 61
62 12 5
62 13 44
62 14 28
62 15 51
62 16 3
62 17 15
62 18 72
62 19 25
62 20 23
62 21 38
62 22 5
62 23 48
62 24 50
62 25 32
62 26 58
62 27 49
62 28 46
62 29 71
62 30 15
62 31 27
62 32 25
62 33 72
62 34 52
62 35 29
62 36 49
62 37 13
62 38 43
62 39 55
62 40 42
62 41 28
62 42 24
62 43 33
62 44 45
62 45 60
62 46 43
62 47 39
62 48 44
62 49 37
62 50 26
62 51 54
62 52 75
62 53 6
62 54 12
62 55 1
62 56 17
62 57 66
62 58 27
62 59 63
62 60 45
62 61 56
63 0 42
63 1 18
63 2 53
63 3 69
63 4 66
63 5 62
63 6 37
63 7 44
63 8 52
63 9 5
63 10 15
63 11 12
63 12 73
63 13 2
63 14 5
63 15 37
63 16 25
63 17 4
63 18 29
63 19 19
63 20 25
63 21 57
63 22 26
63 23 36
63 24 69
63 25 14
63 26 52
63 27 2
63 28 62
63 29 25
63 30 15
63 31 6
63 32 20
63 33 11
63 34 38
63 35 26
63 36 35
63 37 59
63 38 59
63 39 41
63 40 55
63 41 55
63 42 12
63 43 72
63 44 2
63 45 75
63 46 3
63 47 47
63 48 30
63 49 52
63 50 61
63 51 11
63 52 59
63 53 33
63 54 22
63 55 14
63 56 53
63 57 48
63 58 9
63 59 33
63 60 16
63 61 28
63 62 68
64 0 13
64 1 3
64 2 41
64 3 63
64 4 3
64 5 49
64 6 51
64 7 9
64 8 43
64 9 62
64 10 14
64 11 13
64 12 33
64 13 66
64 14 12
64 15 66
64 16 57
64 17 46
64 18 13
64 19 6
64 20 46
64 21 60
64 22 29
64 23 71
64 24 57
64 25 41
64 26 2
64 27 23
64 28 28
64 29 70
64 30 6
64 31 59
64 32 66
64 33 68
64 34 56
64 35 30
64 36 40
64 37 4
64 38 5
64 39 73
64 40 22
64 41 3
64 42 37
64 43 34
64 44 1
64 45 43
64 46 51
64 47 18
64 48 3
64 49 26
64 50 48
64 51 57
64 52 59
64 53 16
64 54 63
64 55 6
64 56 67
64 57 51
64 58 9
64 59 22
64 60 66
64 61 23
64 62 35
64 63 75
65 0 50
65 1 54
65 2 1
65 3 5
65 4 7
65 5 26
65 6 49
65 7 24
65 8 35
65 9 65
65 10 31
65 11 20
65 12 62
65 13 24
65 14 14
65 15 47
65 16 19
65 17 4
65 18 53
65 19 28
65 20 46
65 21 12
65 22 57
65 23 53
65 24 31
65 25 2
65 26 67
65 27 69
65 28 59
65 29 3
65 30 38
65 31 22
65 32 51
65 33 53
65 34 37
65 35 25
65 36 62
65 37 57
65 38 29
65 39 9
65 40 3
65 41 63
65 42 30
65 43 31
65 44 66
65 45 73
65 46 57
65 47 68
65 48 67
65 49 62
65 50 30
65 51 63
65 52 62
65 53 43
65 54 59
65 55 45
65 56 27
65 57 61
65 58 43
65 59 26
65 60 53
65 61 59
65 62 9
65 63 39
65 64 57
66 0 71
66 1 28
66 2 71
66 3 48
66 4 43
66 5 30
66 6 62
66 7 9
66 8 74
66 9 49
66 10 59
66 11 71
66 12 47
66 13 70
66 14 65
66 15 12
66 16 69
66 17 18
66 18 5
66 19 75
66 20 55
66 21 25
66 22 62
66 23 74
66 24 2
66 25 43
66 26 44
66 27 9
66 28 53
66 29 20
66 30 20
66 31 32
66 32 74
66 33 61
66 34 27
66 35 19
66 36 53
66 37 8
66 38 73
66 39 7
66 40 30
66 41 10
66 42 67
66 43 53
66 44 9
66 45 60
66 46 54
66 47 71
66 48 19
66 49 24
66 50 34
66 51 43
66 52 60
66 53 44
66 54 18
66 55 58
66 56 72
66 57 47
66 58 1
66 59 29
66 60 71
66 61 68
66 62 20
66 63 1
66 64 21
66 65 2
67 0 23
67 1 26
67 2 15
67 3 16
67 4 50
67 5 43
67 6 54
67 7 43
67 8 30
67 9 53
67 10 41
67 11 74
67 12 46
67 13 74
67 14 74
67 15 16
67 16 33
67 17 68
67 18 27
67 19 39
67 20 5
67 21 37
67 22 60
67 23 58
67 24 72
67 25 58
67 26 14
67 27 6
67 28 75
67 29 46
67 30 59
67 31 21
67 32 23
67 33 34
67 34 59
67 35 58
67 36 8
67 37 37
67 38 57
67 39 42
67 40 48
67 41 32
67 42 63
67 43 53
67 44 19
67 45 56
67 46 75
67 47 12
67 48 1
67 49 19
67 50 69
67 51 73
67 52 31
67 53 17
67 54 6
67 55 29
67 56 13
67 57 35
67 58 17
67 59 70
67 60 17
67 61 10
67 62 36
67 63 72
67 64 17
67 65 6
67 66 30
68 0 10
68 1 12
68 2 7
68 3 70
68 4 41
68 5 12
68 6 22
68 7 17
68 8 57
68 9 25
68 10 44
68 11 37
68 12 70
68 13 22
68 14 65
68 15 35
68 16 49
68 17 58
68 18 30
68 19 18
68 20 18
68 21 28
68 22 48
68 23 31
68 24 53
68 25 36
68 26 26
68 27 66
68 28 43
68 29 57
68 30 53
68 31 53
68 32 7
68 33 66
68 34 73
68 35 65
68 36 64
68 37 19
68 38 54
68 39 65
68 40 48
68 41 8
68 42 53
68 43 33
68 44 2
68 45 73
68 46 73
68 47 74
68 48 11
68 49 45
68 50 61
68 51 15
68 52 36
68 53 60
68 54 36
68 55 20
68 56 65
68 57 46
68 58 67
68 59 43
68 60 60
68 61 2
68 62 61
68 63 48
68 64 62
68 65 75
68 66 11
68 67 65
69 0 54
69 1 38
69 2 12
69 3 18
69 4 36
69 5 69
69 6 14
69 7 13
69 8 43
69 9 70
69 10 62
69 11 74
69 12 74
69 13 62
69 14 49
69 15 61
69 16 53
69 17 56
69 18 12
69 19 71
69 20 74
69 21 26
69 22 23
69 23 58
69 24 37
69 25 4
69 26 72
69 27 71
69 28 74
69 29 38
69 30 75
69 31 38
69 32 28
69 33 20
69 34 6
69 35 63
69 36 9
69 37 56
69 38 4
69 39 67
69 40 32
69 41 56
69 42 56
69 43 5
69 44 51
69 45 28
69 46 42
69 47 36
69 48 74
69 49 4
69 50 74
69 51 63
69 52 70
69 53 61
69 54 9
69 55 59
69 56 57
69 57 24
69 58 54
69 59 51
69 60 50
69 61 12
69 62 31
69 63 8
69 64 73
69 65 20
69 66 3
69 67 43
69 68 11
